[[273881,10309146,56724914,476691087,553458491,590253108,611452932,676860803,749112129,759585529,797429306,835595245,899683579,974083809],[62622238,160545433,212854333,273437577,388155241,440342565,515111873,571811436,632147771,693183808,766084831,800199097,903722549,954481195],[63530088,176750242,219390769,297688535,391796692,440670104,516438491,576066437,635325627,715804572,767660199,810987938,907889722,949970768],[74930784,185489096,231779694,314282302,399513040,451293411,527210532,579491364,639442135,719925630,773111881,815867043,913442868,944605364],[90024170,203995979,259491019,319428814,403857021,464273198,528065248,589635634,645885730,734837444,791760900,833523676,926509927,938864215],[121449557,205437284,207659617,260479787,267058550,268182749,327640335,357915090,407585305,417445747,437313477,487195041,488199413,541634076,556848802],[5969467,46657026,101185644,154649474,205833528,341111629,605239550,673570427,692231696,749375247,796948325,797645767,864079663,957567427,972501576]]